HmaxDs = 1.500000
HmaxUB_percent = 1.057506
HmaxUB_real = 5883.274781
FTnetDs = 1.500000
FTnetUB_percent = 1.987166
FTnetUB_real = 16834.593868
TIFgap = 0.300000
LimCIPF = 70.717829
SCIP version 1.1.0 [precision: 8 byte] [memory: block] [mode: optimized] [LP solver: Clp 1.8.2]
Copyright (c) 2002-2008 Konrad-Zuse-Zentrum fuer Informationstechnik Berlin (ZIB)

reading user parameter file </home/fabio/docs/hierarquia/models/scip.set>

read problem <data.N30.I1.s1.cluster1.T5.GL1.W2.TIFgap0.3.mps.gz>
============

original problem has 335 variables (170 bin, 0 int, 0 impl, 165 cont) and 142 constraints

solve problem
=============

presolving:
(round 1) 3 del vars, 3 del conss, 4 chg bounds, 0 chg sides, 40 chg coeffs, 0 upgd conss, 0 impls, 40 clqs
(round 2) 5 del vars, 3 del conss, 4 chg bounds, 1 chg sides, 40 chg coeffs, 0 upgd conss, 0 impls, 40 clqs
(round 3) 5 del vars, 3 del conss, 4 chg bounds, 3 chg sides, 40 chg coeffs, 0 upgd conss, 0 impls, 40 clqs
(round 4) 5 del vars, 4 del conss, 4 chg bounds, 3 chg sides, 40 chg coeffs, 41 upgd conss, 0 impls, 40 clqs
presolving (5 rounds):
 5 deleted vars, 4 deleted constraints, 4 tightened bounds, 0 added holes, 3 changed sides, 40 changed coefficients
 2890 implications, 40 cliques
presolved problem has 330 variables (170 bin, 0 int, 0 impl, 160 cont) and 138 constraints
      1 constraints of type <knapsack>
     40 constraints of type <setppc>
     97 constraints of type <linear>
Presolving Time: 0.06

 time | node  | left  |LP iter| mem |mdpt |frac |vars |cons |ccons|cols |rows |cuts |confs|strbr|  dualbound   | primalbound  |  gap   
  0.1s|     1 |     0 |   103 | 952k|   0 |  54 | 330 | 138 | 138 | 330 | 138 |   0 |   0 |   0 | 3.311759e+01 |      --      |    Inf 
  0.3s|     1 |     0 |  1255 |1045k|   0 |  59 | 330 | 138 | 138 | 330 | 163 |  25 |   0 |   0 | 1.139657e+02 |      --      |    Inf 
  0.5s|     1 |     0 |  1488 |1122k|   0 |  56 | 330 | 138 | 138 | 330 | 191 |  53 |   0 |   0 | 4.670122e+03 |      --      |    Inf 
  0.7s|     1 |     0 |  1626 |1170k|   0 |  64 | 330 | 138 | 138 | 330 | 211 |  73 |   0 |   0 | 4.808402e+03 |      --      |    Inf 
  0.9s|     1 |     0 |  1847 |1201k|   0 |  69 | 330 | 138 | 138 | 330 | 229 |  91 |   0 |   0 | 4.909956e+03 |      --      |    Inf 
  1.2s|     1 |     0 |  1984 |1239k|   0 |  73 | 330 | 138 | 138 | 330 | 252 | 114 |   0 |   0 | 4.965073e+03 |      --      |    Inf 
  1.5s|     1 |     0 |  2059 |1266k|   0 |  76 | 330 | 138 | 138 | 330 | 271 | 133 |   0 |   0 | 4.975238e+03 |      --      |    Inf 
  1.9s|     1 |     0 |  2293 |1283k|   0 |  88 | 330 | 138 | 138 | 330 | 282 | 144 |   0 |   0 | 5.116191e+03 |      --      |    Inf 
  2.2s|     1 |     0 |  2495 |1304k|   0 |  89 | 330 | 138 | 138 | 330 | 293 | 155 |   0 |   0 | 5.181649e+03 |      --      |    Inf 
  2.6s|     1 |     0 |  2615 |1318k|   0 |  86 | 330 | 138 | 138 | 330 | 301 | 163 |   0 |   0 | 5.230267e+03 |      --      |    Inf 
  3.0s|     1 |     0 |  2643 |1322k|   0 |  89 | 330 | 138 | 138 | 330 | 304 | 166 |   0 |   0 | 5.231895e+03 |      --      |    Inf 
  3.4s|     1 |     2 |  2903 |1325k|   0 |  89 | 330 | 138 | 138 | 330 | 304 | 166 |   0 |  18 | 5.231895e+03 |      --      |    Inf 

SCIP Status        : problem is solved [infeasible]
Solving Time (sec) : 13.38
Solving Nodes      : 65
Primal Bound       : +1.00000000000000e+20 (0 solutions)
Dual Bound         : +1.00000000000000e+20
Gap                : 0.00 %

primal solution:
================

no solution available

Statistics
==========

SCIP Status        : problem is solved [infeasible]
Solving Time       :      13.38
Original Problem   :
  Problem name     : labtel
  Variables        : 335 (170 binary, 0 integer, 0 implicit integer, 165 continuous)
  Constraints      : 142 initial, 142 maximal
Presolved Problem  :
  Problem name     : t_labtel
  Variables        : 330 (170 binary, 0 integer, 0 implicit integer, 160 continuous)
  Constraints      : 138 initial, 161 maximal
Presolvers         :       Time  FixedVars   AggrVars   ChgTypes  ChgBounds   AddHoles    DelCons   ChgSides   ChgCoefs
  trivial          :       0.00          0          0          0          0          0          0          0          0
  dualfix          :       0.00          0          0          0          0          0          0          0          0
  boundshift       :       0.00          0          0          0          0          0          0          0          0
  inttobinary      :       0.00          0          0          0          0          0          0          0          0
  implics          :       0.00          0          0          0          0          0          0          0          0
  probing          :       0.04          0          0          0          0          0          0          0          0
  knapsack         :       0.00          0          0          0          0          0          0          0          0
  setppc           :       0.00          0          0          0          0          0          0          0          0
  linear           :       0.02          0          5          0          4          0          4          3         40
  logicor          :       0.00          0          0          0          0          0          0          0          0
  root node        :          -         35          -          -         35          -          -          -          -
Constraints        :     Number  #Separate #Propagate    #EnfoLP    #EnfoPS    Cutoffs    DomReds       Cuts      Conss   Children
  integral         :          0          0          0         37          0          0          7          0          0         70
  knapsack         :          1         11        658          0          0          0          0          0          0          0
  setppc           :         40         11        658          0          0          0       2182          0          0          0
  linear           :         97         11        658          0          0         18        782          0          0          0
  logicor          :          0+         0         70          0          0          0         29          0          0          0
  countsols        :          0          0          0          0          0          0          0          0          0          0
Constraint Timings :  TotalTime   Separate  Propagate     EnfoLP     EnfoPS
  integral         :       8.01       0.00       0.00       8.01       0.00
  knapsack         :       0.01       0.01       0.00       0.00       0.00
  setppc           :       0.01       0.00       0.01       0.00       0.00
  linear           :       0.06       0.01       0.05       0.00       0.00
  logicor          :       0.00       0.00       0.00       0.00       0.00
  countsols        :       0.00       0.00       0.00       0.00       0.00
Propagators        :       Time      Calls    Cutoffs    DomReds
  rootredcost      :       0.00          0          0          0
  pseudoobj        :       0.00        248          1          0
Conflict Analysis  :       Time      Calls    Success  Conflicts   Literals    Reconvs ReconvLits   LP Iters
  propagation      :       0.00         18         18         38        8.0          0        0.0          -
  infeasible LP    :       0.00         17          2         12       12.5          0        0.0          0
  bound exceed. LP :       0.00          0          0          0        0.0          0        0.0          0
  strong branching :       0.00          0          0          0        0.0          0        0.0          0
  pseudo solution  :       0.00          0          0          0        0.0          0        0.0          -
  applied globally :          -          -          -         33        6.8          -          -          -
  applied locally  :          -          -          -          0        0.0          -          -          -
Separators         :       Time      Calls    Cutoffs    DomReds       Cuts      Conss
  cut pool         :       0.00         10          -          -         30          -    (maximal pool size: 289)
  redcost          :       0.00         47          0          0          0          0
  impliedbounds    :       0.01         11          0          0          0          0
  intobj           :       0.00          0          0          0          0          0
  gomory           :       0.08         11          0          0          7          0
  strongcg         :       0.09         11          0          0          0          0
  cmir             :       0.97         10          0          0        267          0
  flowcover        :       1.36         10          0          0         38          0
  clique           :       0.00         11          0          0          0          0
  zerohalf         :       0.00          0          0          0          0          0
  mcf              :       0.00          0          0          0          0          0
Pricers            :       Time      Calls       Vars
  problem variables:       0.00          0          0
Branching Rules    :       Time      Calls    Cutoffs    DomReds       Cuts      Conss   Children
  relpscost        :       8.01         37          0          7          0          0         70
  pscost           :       0.00          0          0          0          0          0          0
  inference        :       0.00          0          0          0          0          0          0
  mostinf          :       0.00          0          0          0          0          0          0
  leastinf         :       0.00          0          0          0          0          0          0
  fullstrong       :       0.00          0          0          0          0          0          0
  allfullstrong    :       0.00          0          0          0          0          0          0
  random           :       0.00          0          0          0          0          0          0
Primal Heuristics  :       Time      Calls      Found
  LP solutions     :       0.00          -          0
  pseudo solutions :       0.00          -          0
  oneopt           :       0.00          0          0
  coefdiving       :       0.00          0          0
  pscostdiving     :       0.00          0          0
  fracdiving       :       0.00          0          0
  veclendiving     :       0.00          0          0
  objpscostdiving  :       0.00          0          0
  rootsoldiving    :       0.00          0          0
  linesearchdiving :       0.00          0          0
  guideddiving     :       0.00          0          0
  crossover        :       0.00          0          0
  intshifting      :       0.06          1          0
  simplerounding   :       0.00          0          0
  rounding         :       0.00         47          0
  shifting         :       0.01         12          0
  fixandinfer      :       0.00          0          0
  feaspump         :       0.08          1          0
  intdiving        :       0.00          0          0
  actconsdiving    :       0.00          0          0
  octane           :       0.00          0          0
  rens             :       0.00          0          0
  rins             :       0.00          0          0
  localbranching   :       0.00          0          0
  mutation         :       0.00          0          0
  dins             :       0.00          0          0
LP                 :       Time      Calls Iterations  Iter/call   Iter/sec
  primal LP        :       0.01          0          0       0.00          -
  dual LP          :       2.54         72      14342     199.19    5646.46
  barrier LP       :       0.00          0          0       0.00          -
  diving/probing LP:       0.13         30       1323      44.10   10176.92
  strong branching :       8.00        556      67518     121.44    8439.75
    (at root node) :          -         18       2324     129.11          -
  conflict analysis:       0.00          0          0       0.00          -
B&B Tree           :
  number of runs   :          1
  nodes            :         65
  nodes (total)    :         65
  nodes left       :          0
  max depth        :         11
  max depth (total):         11
  backtracks       :         12 (18.5%)
  delayed cutoffs  :          6
  repropagations   :         36 (510 domain reductions, 6 cutoffs)
  avg switch length:       2.74
  switching time   :       0.03
Solution           :
  Solutions found  :          0 (0 improvements)
  Primal Bound     : infeasible
  Dual Bound       :          -
  Gap              :       0.00 %
  Root Dual Bound  : +5.23189498776979e+03
